p cnf 256 477
1 -2 0
1 -3 0
2 3 -1 0
4 -1 0
1 -4 0
-2 5 0
5 -6 0
2 6 -5 0
3 -5 0
-3 5 0
7 -8 0
7 -9 0
8 9 -7 0
10 -7 0
7 -10 0
11 -12 0
11 -13 0
12 13 -11 0
9 -11 0
-9 11 0
14 -15 0
14 -16 0
15 16 -14 0
13 -14 0
-13 14 0
17 -18 0
17 -19 0
18 19 -17 0
16 -17 0
-16 17 0
20 -21 0
20 -22 0
21 22 -20 0
19 -20 0
-19 20 0
23 -24 0
23 -25 0
24 25 -23 0
22 -23 0
-22 23 0
-18 26 0
-21 26 0
-24 26 0
26 -27 0
18 21 24 27 -26 0
25 -26 0
-25 26 0
28 -29 0
28 -30 0
29 30 -28 0
31 -28 0
28 -31 0
32 -33 0
32 -34 0
33 34 -32 0
30 -32 0
-30 32 0
35 -36 0
35 -37 0
36 37 -35 0
34 -35 0
-34 35 0
38 -39 0
38 -40 0
39 40 -38 0
37 -38 0
-37 38 0
41 -42 0
41 -43 0
42 43 -41 0
40 -41 0
-40 41 0
44 -45 0
44 -46 0
45 46 -44 0
43 -44 0
-43 44 0
-39 47 0
-42 47 0
-45 47 0
47 -48 0
39 42 45 48 -47 0
46 -47 0
-46 47 0
49 -50 0
49 -51 0
50 51 -49 0
52 -49 0
49 -52 0
53 -54 0
-55 53 0
54 55 -53 0
51 -53 0
-51 53 0
55 -56 0
56 -55 0
57 -58 0
57 -59 0
58 59 -57 0
60 -57 0
57 -60 0
61 -62 0
61 -63 0
62 63 -61 0
59 -61 0
-59 61 0
64 -65 0
64 -66 0
65 66 -64 0
63 -64 0
-63 64 0
67 -68 0
67 -69 0
68 69 -67 0
66 -67 0
-66 67 0
-65 70 0
-68 70 0
70 -71 0
65 68 71 -70 0
69 -70 0
-69 70 0
72 -73 0
72 -74 0
73 74 -72 0
75 -72 0
72 -75 0
76 -77 0
76 -78 0
77 78 -76 0
74 -76 0
-74 76 0
79 -80 0
79 -81 0
80 81 -79 0
78 -79 0
-78 79 0
-4 82 0
82 -83 0
4 83 -82 0
81 -82 0
-81 82 0
84 -85 0
84 -86 0
85 86 -84 0
87 -84 0
84 -87 0
88 -89 0
88 -90 0
89 90 -88 0
86 -88 0
-86 88 0
91 -92 0
91 -93 0
92 93 -91 0
90 -91 0
-90 91 0
-69 94 0
94 -95 0
69 95 -94 0
93 -94 0
-93 94 0
96 -97 0
96 -98 0
97 98 -96 0
99 -96 0
96 -99 0
100 -101 0
100 -102 0
101 102 -100 0
98 -100 0
-98 100 0
-3 103 0
103 -104 0
3 104 -103 0
102 -103 0
-102 103 0
105 -106 0
105 -107 0
106 107 -105 0
108 -105 0
105 -108 0
109 -110 0
109 -111 0
110 111 -109 0
107 -109 0
-107 109 0
111 -112 0
112 -111 0
113 -114 0
113 -115 0
114 115 -113 0
116 -113 0
113 -116 0
-46 117 0
117 -118 0
46 118 -117 0
115 -117 0
-115 117 0
119 -120 0
119 -121 0
120 121 -119 0
122 -119 0
119 -122 0
-115 123 0
123 -124 0
115 124 -123 0
121 -123 0
-121 123 0
125 -126 0
125 -127 0
126 127 -125 0
128 -125 0
125 -128 0
129 -130 0
129 -131 0
130 131 -129 0
127 -129 0
-127 129 0
132 -133 0
132 -134 0
133 134 -132 0
131 -132 0
-131 132 0
135 -136 0
135 -137 0
136 137 -135 0
134 -135 0
-134 135 0
138 -139 0
138 -140 0
139 140 -138 0
137 -138 0
-137 138 0
141 -142 0
141 -143 0
142 143 -141 0
140 -141 0
-140 141 0
144 -145 0
144 -146 0
145 146 -144 0
143 -144 0
-143 144 0
-139 147 0
-142 147 0
-145 147 0
147 -148 0
139 142 145 148 -147 0
146 -147 0
-146 147 0
149 -150 0
149 -151 0
150 151 -149 0
152 -149 0
149 -152 0
153 -154 0
153 -155 0
154 155 -153 0
151 -153 0
-151 153 0
156 -157 0
156 -158 0
157 158 -156 0
155 -156 0
-155 156 0
159 -160 0
159 -161 0
160 161 -159 0
158 -159 0
-158 159 0
162 -163 0
162 -164 0
163 164 -162 0
161 -162 0
-161 162 0
-154 165 0
-157 165 0
-160 165 0
-163 165 0
165 -166 0
154 157 160 163 166 -165 0
164 -165 0
-164 165 0
167 -168 0
167 -169 0
168 169 -167 0
170 -167 0
167 -170 0
-13 171 0
171 -172 0
13 172 -171 0
169 -171 0
-169 171 0
173 -174 0
173 -175 0
174 175 -173 0
176 -173 0
173 -176 0
177 -178 0
177 -179 0
178 179 -177 0
175 -177 0
-175 177 0
-51 180 0
180 -181 0
51 181 -180 0
179 -180 0
-179 180 0
182 -183 0
182 -184 0
183 184 -182 0
185 -182 0
182 -185 0
-155 186 0
186 -187 0
155 187 -186 0
184 -186 0
-184 186 0
-102 188 0
188 -189 0
102 189 -188 0
190 -188 0
188 -190 0
191 -192 0
191 -193 0
192 193 -191 0
194 -191 0
191 -194 0
195 -196 0
195 -197 0
196 197 -195 0
193 -195 0
-193 195 0
-66 198 0
198 -199 0
66 199 -198 0
197 -198 0
-197 198 0
200 -201 0
200 -202 0
201 202 -200 0
203 -200 0
200 -203 0
-179 204 0
204 -205 0
179 205 -204 0
202 -204 0
-202 204 0
-40 206 0
206 -207 0
40 207 -206 0
208 -206 0
206 -208 0
209 -210 0
209 -211 0
210 211 -209 0
212 -209 0
209 -212 0
-146 213 0
213 -214 0
146 214 -213 0
211 -213 0
-211 213 0
-99 215 0
215 -216 0
99 216 -215 0
217 -215 0
215 -217 0
218 -219 0
218 -220 0
219 220 -218 0
221 -218 0
218 -221 0
222 -223 0
222 -224 0
223 224 -222 0
220 -222 0
-220 222 0
-211 225 0
225 -226 0
211 226 -225 0
224 -225 0
-224 225 0
-143 227 0
227 -228 0
143 228 -227 0
229 -227 0
227 -229 0
-81 230 0
230 -231 0
81 231 -230 0
232 -230 0
230 -232 0
233 -234 0
233 -235 0
234 235 -233 0
236 -233 0
233 -236 0
-52 237 0
237 -238 0
52 238 -237 0
235 -237 0
-235 237 0
-193 239 0
239 -240 0
193 240 -239 0
241 -239 0
239 -241 0
242 -243 0
242 -244 0
243 244 -242 0
245 -242 0
242 -245 0
-131 246 0
246 -247 0
131 247 -246 0
244 -246 0
-244 246 0
248 -249 0
248 -250 0
249 250 -248 0
251 -248 0
248 -251 0
252 -253 0
252 -254 0
253 254 -252 0
250 -252 0
-250 252 0
-134 255 0
255 -256 0
134 256 -255 0
254 -255 0
-254 255 0
4 0
3 0
10 0
25 0
31 0
34 0
52 0
51 0
-55 0
60 0
66 0
75 0
78 0
81 0
87 0
99 0
98 0
108 0
107 0
116 0
122 0
121 0
128 0
152 0
151 0
155 0
170 0
176 0
179 0
185 0
190 0
194 0
203 0
208 0
212 0
217 0
221 0
229 0
232 0
236 0
241 0
245 0
251 0
